1 0 
2 14 
3 3 
4 5 
5 9 
6 69 
7 13 
8 25 
9 17 
10 12 
11 12 
12 10 
13 2 
14 23 
15 15 
16 16 
17 26 
18 12 
19 12 
20 26 
21 10 
22 22 
23 4 
24 16 
25 8 
26 23 
27 2 
28 24 
29 12 
30 24 
31 4 
32 19 
33 21 
34 7 
35 15 
36 14 
37 18 
38 7 
39 20 
40 18 
41 2 
42 21 
43 21 
44 3 
45 5 
46 20 
47 16 
48 25 
49 3 
50 10 
